(declare-fun temp6999_1 () (_ BitVec 64))
(declare-fun temp6999_2 () (_ BitVec 64))
(declare-fun var263431 () (_ BitVec 64))
(declare-fun k!0 () Bool)
(declare-fun ARGNAME_input_NAMEEND_DIM () (_ BitVec 64))
(declare-fun temp6999_4 () (_ BitVec 64))
(declare-fun temp6999_3 () (_ BitVec 64))
(declare-fun temp6999_6 () (_ BitVec 64))
(declare-fun temp6999_5 () (_ BitVec 64))
(declare-fun temp6999_7 () (_ BitVec 64))
(declare-fun var856789 () (_ BitVec 64))
(declare-fun var922336 () (_ BitVec 64))
(declare-fun temp6999_8 () (_ BitVec 64))
(declare-fun var1708720 () (_ BitVec 64))
(declare-fun temp6999_9 () (_ BitVec 64))
(declare-fun var1967531 () (_ BitVec 64))
(declare-fun temp6999_10 () (_ BitVec 64))
(declare-fun var2755860 () (_ BitVec 64))
(declare-fun var2755868 () (_ BitVec 64))
(declare-fun temp6999_11 () (_ BitVec 64))
(declare-fun var2887142 () (_ BitVec 64))
(declare-fun var2887144 () (_ BitVec 64))
(declare-fun var2952687 () (_ BitVec 64))
(declare-fun var3018231 () (_ BitVec 64))
(declare-fun temp6999_13 () (_ BitVec 64))
(declare-fun temp6999_12 () (_ BitVec 64))
(declare-fun var4328912 () (_ BitVec 64))
(declare-fun temp6999_14 () (_ BitVec 64))
(declare-fun temp6999_15 () (_ BitVec 64))
(declare-fun var4394453 () (_ BitVec 64))
(declare-fun var4460000 () (_ BitVec 64))
(declare-fun var4261402 () (_ BitVec 64))
(declare-fun temp6999_16 () (_ BitVec 64))
(declare-fun var66421 () (_ BitVec 64))
(declare-fun temp6999_17 () (_ BitVec 64))
(declare-fun var5377300 () (_ BitVec 64))
(declare-fun temp6999_18 () (_ BitVec 64))
(declare-fun var5442927 () (_ BitVec 64))
(declare-fun temp6999_19 () (_ BitVec 64))
(declare-fun var66448 () (_ BitVec 64))
(declare-fun temp6999_21 () (_ BitVec 64))
(declare-fun temp6999_20 () (_ BitVec 64))
(declare-fun var66404 () (_ BitVec 64))
(declare-fun var66402 () (_ BitVec 64))
(declare-fun temp6999_22 () (_ BitVec 64))
(declare-fun var66408 () (_ BitVec 64))
(declare-fun temp6999_23 () (_ BitVec 64))
(declare-fun temp6999_24 () (_ BitVec 64))
(declare-fun ARGNAME_input_NAMEEND_NUMELEMENT () (_ BitVec 64))
(declare-fun var66478 () (_ BitVec 64))
(declare-fun temp6999_25 () (_ BitVec 64))
(declare-fun temp6999_27 () (_ BitVec 64))
(declare-fun temp6999_26 () (_ BitVec 64))
(declare-fun temp6999_29 () (_ BitVec 64))
(declare-fun temp6999_28 () (_ BitVec 64))
(declare-fun temp6999_31 () (_ BitVec 64))
(declare-fun temp6999_30 () (_ BitVec 64))
(declare-fun temp6999_33 () (_ BitVec 64))
(declare-fun temp6999_32 () (_ BitVec 64))
(declare-fun temp6999_35 () (_ BitVec 64))
(declare-fun temp6999_34 () (_ BitVec 64))
(declare-fun temp6999_37 () (_ BitVec 64))
(declare-fun temp6999_36 () (_ BitVec 64))
(declare-fun temp6999_39 () (_ BitVec 64))
(declare-fun temp6999_38 () (_ BitVec 64))
(declare-fun temp6999_41 () (_ BitVec 64))
(declare-fun temp6999_40 () (_ BitVec 64))
(declare-fun temp6999_43 () (_ BitVec 64))
(declare-fun temp6999_42 () (_ BitVec 64))
(declare-fun temp6999_44 () (_ BitVec 64))
(declare-fun var6948635 () (_ BitVec 64))
(declare-fun var6948636 () (_ BitVec 64))
(declare-fun temp6999_45 () (_ BitVec 64))
(declare-fun var7014178 () (_ BitVec 64))
(declare-fun var7014179 () (_ BitVec 64))
(declare-fun temp6999_46 () (_ BitVec 64))
(declare-fun var7278054 () (_ BitVec 64))
(declare-fun var7278056 () (_ BitVec 64))
(declare-fun var7343599 () (_ BitVec 64))
(declare-fun var7409143 () (_ BitVec 64))
(assert (= temp6999_1 #x0000000000000040))
(assert (= var263431
   (ite (bvsgt ARGNAME_input_NAMEEND_DIM temp6999_1)
        #x0000000000000001
        #x0000000000000000)))
(assert (= temp6999_2 #x0000000000000000))
(assert (= var263431 temp6999_2))
(assert (= temp6999_4 #x0000000000000000))
(assert (= temp6999_3 temp6999_4))
(assert (= temp6999_6 #x0000000000000000))
(assert (= temp6999_5 temp6999_6))
(assert (= temp6999_7 #x0000000000000000))
(assert (= var856789 temp6999_7))
(assert (= var922336 var856789))
(assert (= temp6999_8 #x0000000000000001))
(assert (= var1708720 temp6999_8))
(assert (= temp6999_9 #x0000000000000001))
(assert (= var1967531 temp6999_9))
(assert (= temp6999_10 #x0000000000000001))
(assert (= var2755860 temp6999_10))
(assert (= var2755868 var2755860))
(assert (= temp6999_11 #x0000000000000005))
(assert (= var2887142 temp6999_11))
(assert (= var2887144 var2887142))
(assert (= var2952687 var2887144))
(assert (= var3018231 var2952687))
(assert (= temp6999_13 #x0000000000000000))
(assert (= temp6999_12 temp6999_13))
(assert (= var4328912
   (ite (bvslt temp6999_12 ARGNAME_input_NAMEEND_DIM)
        #x0000000000000001
        #x0000000000000000)))
(assert (= temp6999_14
   (ite (= var4328912 #x0000000000000001) ARGNAME_input_NAMEEND_DIM temp6999_12)))
(assert (= temp6999_15 #x0000000000000000))
(assert (= var4394453 temp6999_15))
(assert (= var4460000 var4394453))
(assert (= var4261402 var4460000))
(assert (= temp6999_16 #x0000000000000000))
(assert (= var66421 temp6999_16))
(assert (= temp6999_17 #x0000000000000001))
(assert (= var5377300 temp6999_17))
(assert (= temp6999_18 #x0000000000000000))
(assert (= var5442927 temp6999_18))
(assert (= temp6999_19 #x0000000000000001))
(assert (= var66448 (bvadd var66421 temp6999_19)))
(assert (= temp6999_21 #x0000000000000000))
(assert (= temp6999_20 temp6999_21))
(assert (= var66404 var66448))
(assert (= var66402 var66404))
(assert (= temp6999_22 #x0000000000000000))
(assert (= var66408
   (ite (= var66402 temp6999_22) #x0000000000000001 #x0000000000000000)))
(assert (= temp6999_23 #x0000000000000000))
(assert (= var66408 temp6999_23))
(assert (= temp6999_24 #x0000000000000002))
(assert (= var66478
   (ite (bvslt ARGNAME_input_NAMEEND_NUMELEMENT temp6999_24)
        #x0000000000000001
        #x0000000000000000)))
(assert (= temp6999_25 #x0000000000000000))
(assert (= var66478 temp6999_25))
(assert (= temp6999_27 #x0000000000000000))
(assert (= temp6999_26 temp6999_27))
(assert (= temp6999_29 #x0000000000000000))
(assert (= temp6999_28 temp6999_29))
(assert (= temp6999_31 #x0000000000000001))
(assert (= temp6999_30 temp6999_31))
(assert (= temp6999_33 #x0000000000000000))
(assert (= temp6999_32 temp6999_33))
(assert (= temp6999_35 #x0000000000000000))
(assert (= temp6999_34 temp6999_35))
(assert (= temp6999_37 #x0000000000000001))
(assert (= temp6999_36 temp6999_37))
(assert (= temp6999_39 #x0000000000000001))
(assert (= temp6999_38 temp6999_39))
(assert (= temp6999_41 #x0000000000000001))
(assert (= temp6999_40 temp6999_41))
(assert (= temp6999_43 #x0000000000000000))
(assert (= temp6999_42 temp6999_43))
(assert (= temp6999_44 #x0000000000000000))
(assert (= var6948635 temp6999_44))
(assert (= var6948636 var6948635))
(assert (= temp6999_45 #x0000000000000000))
(assert (= var7014178 temp6999_45))
(assert (= var7014179 var7014178))
(assert (= temp6999_46 #x0000000000000005))
(assert (= var7278054 temp6999_46))
(assert (= var7278056 var7278054))
(assert (= var7343599 var7278056))
(assert (= var7409143 var7343599))
(model-add temp6999_1 () (_ BitVec 64) #x0000000000000040)
(model-add temp6999_2 () (_ BitVec 64) #x0000000000000000)
(model-add var263431 () (_ BitVec 64) #x0000000000000000)
(model-del k!0)
(model-add ARGNAME_input_NAMEEND_DIM
           ()
           (_ BitVec 64)
           (ite (or k!0 (= #x0000000000000040 #x7fffffffffffffff))
                #x0000000000000040
                (bvadd #x0000000000000040 #x0000000000000001)))




